p cnf 496 2445
7 0
13 0
19 0
25 0
31 0
14 0
20 0
26 0
32 0
21 0
27 0
33 0
28 0
34 0
35 0
-7 -14 13 0
-7 -20 19 0
-7 -26 25 0
-7 -32 31 0
-13 -9 7 0
-13 -21 19 0
-13 -27 25 0
-13 -33 31 0
-19 -10 7 0
-19 -16 13 0
-19 -28 25 0
-19 -34 31 0
-25 -11 7 0
-25 -17 13 0
-25 -23 19 0
-25 -35 31 0
-31 -12 7 0
-31 -18 13 0
-31 -24 19 0
-31 -30 25 0
-2 -13 14 0
-2 -19 20 0
-2 -25 26 0
-2 -31 32 0
-14 -3 2 0
-14 -21 20 0
-14 -27 26 0
-14 -33 32 0
-20 -4 2 0
-20 -16 14 0
-20 -28 26 0
-20 -34 32 0
-26 -5 2 0
-26 -17 14 0
-26 -23 20 0
-26 -35 32 0
-32 -6 2 0
-32 -18 14 0
-32 -24 20 0
-32 -30 26 0
-3 -7 9 0
-3 -19 21 0
-3 -25 27 0
-3 -31 33 0
-9 -2 3 0
-9 -20 21 0
-9 -26 27 0
-9 -32 33 0
-21 -4 3 0
-21 -10 9 0
-21 -28 27 0
-21 -34 33 0
-27 -5 3 0
-27 -11 9 0
-27 -23 21 0
-27 -35 33 0
-33 -6 3 0
-33 -12 9 0
-33 -24 21 0
-33 -30 27 0
-4 -7 10 0
-4 -13 16 0
-4 -25 28 0
-4 -31 34 0
-10 -2 4 0
-10 -14 16 0
-10 -26 28 0
-10 -32 34 0
-16 -3 4 0
-16 -9 10 0
-16 -27 28 0
-16 -33 34 0
-28 -5 4 0
-28 -11 10 0
-28 -17 16 0
-28 -35 34 0
-34 -6 4 0
-34 -12 10 0
-34 -18 16 0
-34 -30 28 0
-5 -7 11 0
-5 -13 17 0
-5 -19 23 0
-5 -31 35 0
-11 -2 5 0
-11 -14 17 0
-11 -20 23 0
-11 -32 35 0
-17 -3 5 0
-17 -9 11 0
-17 -21 23 0
-17 -33 35 0
-23 -4 5 0
-23 -10 11 0
-23 -16 17 0
-23 -34 35 0
-35 -6 5 0
-35 -12 11 0
-35 -18 17 0
-35 -24 23 0
-6 -7 12 0
-6 -13 18 0
-6 -19 24 0
-6 -25 30 0
-12 -2 6 0
-12 -14 18 0
-12 -20 24 0
-12 -26 30 0
-18 -3 6 0
-18 -9 12 0
-18 -21 24 0
-18 -27 30 0
-24 -4 6 0
-24 -10 12 0
-24 -16 18 0
-24 -28 30 0
-30 -5 6 0
-30 -11 12 0
-30 -17 18 0
-30 -23 24 0
-43 -50 49 0
-43 -56 55 0
-43 -62 61 0
-43 -68 67 0
-49 -45 43 0
-49 -57 55 0
-49 -63 61 0
-49 -69 67 0
-55 -46 43 0
-55 -52 49 0
-55 -64 61 0
-55 -70 67 0
-61 -47 43 0
-61 -53 49 0
-61 -59 55 0
-61 -71 67 0
-67 -48 43 0
-67 -54 49 0
-67 -60 55 0
-67 -66 61 0
-38 -49 50 0
-38 -55 56 0
-38 -61 62 0
-38 -67 68 0
-50 -39 38 0
-50 -57 56 0
-50 -63 62 0
-50 -69 68 0
-56 -40 38 0
-56 -52 50 0
-56 -64 62 0
-56 -70 68 0
-62 -41 38 0
-62 -53 50 0
-62 -59 56 0
-62 -71 68 0
-68 -42 38 0
-68 -54 50 0
-68 -60 56 0
-68 -66 62 0
-39 -43 45 0
-39 -55 57 0
-39 -61 63 0
-39 -67 69 0
-45 -38 39 0
-45 -56 57 0
-45 -62 63 0
-45 -68 69 0
-57 -40 39 0
-57 -46 45 0
-57 -64 63 0
-57 -70 69 0
-63 -41 39 0
-63 -47 45 0
-63 -59 57 0
-63 -71 69 0
-69 -42 39 0
-69 -48 45 0
-69 -60 57 0
-69 -66 63 0
-40 -43 46 0
-40 -49 52 0
-40 -61 64 0
-40 -67 70 0
-46 -38 40 0
-46 -50 52 0
-46 -62 64 0
-46 -68 70 0
-52 -39 40 0
-52 -45 46 0
-52 -63 64 0
-52 -69 70 0
-64 -41 40 0
-64 -47 46 0
-64 -53 52 0
-64 -71 70 0
-70 -42 40 0
-70 -48 46 0
-70 -54 52 0
-70 -66 64 0
-41 -43 47 0
-41 -49 53 0
-41 -55 59 0
-41 -67 71 0
-47 -38 41 0
-47 -50 53 0
-47 -56 59 0
-47 -68 71 0
-53 -39 41 0
-53 -45 47 0
-53 -57 59 0
-53 -69 71 0
-59 -40 41 0
-59 -46 47 0
-59 -52 53 0
-59 -70 71 0
-71 -42 41 0
-71 -48 47 0
-71 -54 53 0
-71 -60 59 0
-42 -43 48 0
-42 -49 54 0
-42 -55 60 0
-42 -61 66 0
-48 -38 42 0
-48 -50 54 0
-48 -56 60 0
-48 -62 66 0
-54 -39 42 0
-54 -45 48 0
-54 -57 60 0
-54 -63 66 0
-60 -40 42 0
-60 -46 48 0
-60 -52 54 0
-60 -64 66 0
-66 -41 42 0
-66 -47 48 0
-66 -53 54 0
-66 -59 60 0
-79 -86 85 0
-79 -92 91 0
-79 -98 97 0
-79 -104 103 0
-85 -81 79 0
-85 -93 91 0
-85 -99 97 0
-85 -105 103 0
-91 -82 79 0
-91 -88 85 0
-91 -100 97 0
-91 -106 103 0
-97 -83 79 0
-97 -89 85 0
-97 -95 91 0
-97 -107 103 0
-103 -84 79 0
-103 -90 85 0
-103 -96 91 0
-103 -102 97 0
-74 -85 86 0
-74 -91 92 0
-74 -97 98 0
-74 -103 104 0
-86 -75 74 0
-86 -93 92 0
-86 -99 98 0
-86 -105 104 0
-92 -76 74 0
-92 -88 86 0
-92 -100 98 0
-92 -106 104 0
-98 -77 74 0
-98 -89 86 0
-98 -95 92 0
-98 -107 104 0
-104 -78 74 0
-104 -90 86 0
-104 -96 92 0
-104 -102 98 0
-75 -79 81 0
-75 -91 93 0
-75 -97 99 0
-75 -103 105 0
-81 -74 75 0
-81 -92 93 0
-81 -98 99 0
-81 -104 105 0
-93 -76 75 0
-93 -82 81 0
-93 -100 99 0
-93 -106 105 0
-99 -77 75 0
-99 -83 81 0
-99 -95 93 0
-99 -107 105 0
-105 -78 75 0
-105 -84 81 0
-105 -96 93 0
-105 -102 99 0
-76 -79 82 0
-76 -85 88 0
-76 -97 100 0
-76 -103 106 0
-82 -74 76 0
-82 -86 88 0
-82 -98 100 0
-82 -104 106 0
-88 -75 76 0
-88 -81 82 0
-88 -99 100 0
-88 -105 106 0
-100 -77 76 0
-100 -83 82 0
-100 -89 88 0
-100 -107 106 0
-106 -78 76 0
-106 -84 82 0
-106 -90 88 0
-106 -102 100 0
-77 -79 83 0
-77 -85 89 0
-77 -91 95 0
-77 -103 107 0
-83 -74 77 0
-83 -86 89 0
-83 -92 95 0
-83 -104 107 0
-89 -75 77 0
-89 -81 83 0
-89 -93 95 0
-89 -105 107 0
-95 -76 77 0
-95 -82 83 0
-95 -88 89 0
-95 -106 107 0
-107 -78 77 0
-107 -84 83 0
-107 -90 89 0
-107 -96 95 0
-78 -79 84 0
-78 -85 90 0
-78 -91 96 0
-78 -97 102 0
-84 -74 78 0
-84 -86 90 0
-84 -92 96 0
-84 -98 102 0
-90 -75 78 0
-90 -81 84 0
-90 -93 96 0
-90 -99 102 0
-96 -76 78 0
-96 -82 84 0
-96 -88 90 0
-96 -100 102 0
-102 -77 78 0
-102 -83 84 0
-102 -89 90 0
-102 -95 96 0
-115 -122 121 0
-115 -128 127 0
-115 -134 133 0
-115 -140 139 0
-121 -117 115 0
-121 -129 127 0
-121 -135 133 0
-121 -141 139 0
-127 -118 115 0
-127 -124 121 0
-127 -136 133 0
-127 -142 139 0
-133 -119 115 0
-133 -125 121 0
-133 -131 127 0
-133 -143 139 0
-139 -120 115 0
-139 -126 121 0
-139 -132 127 0
-139 -138 133 0
-110 -121 122 0
-110 -127 128 0
-110 -133 134 0
-110 -139 140 0
-122 -111 110 0
-122 -129 128 0
-122 -135 134 0
-122 -141 140 0
-128 -112 110 0
-128 -124 122 0
-128 -136 134 0
-128 -142 140 0
-134 -113 110 0
-134 -125 122 0
-134 -131 128 0
-134 -143 140 0
-140 -114 110 0
-140 -126 122 0
-140 -132 128 0
-140 -138 134 0
-111 -115 117 0
-111 -127 129 0
-111 -133 135 0
-111 -139 141 0
-117 -110 111 0
-117 -128 129 0
-117 -134 135 0
-117 -140 141 0
-129 -112 111 0
-129 -118 117 0
-129 -136 135 0
-129 -142 141 0
-135 -113 111 0
-135 -119 117 0
-135 -131 129 0
-135 -143 141 0
-141 -114 111 0
-141 -120 117 0
-141 -132 129 0
-141 -138 135 0
-112 -115 118 0
-112 -121 124 0
-112 -133 136 0
-112 -139 142 0
-118 -110 112 0
-118 -122 124 0
-118 -134 136 0
-118 -140 142 0
-124 -111 112 0
-124 -117 118 0
-124 -135 136 0
-124 -141 142 0
-136 -113 112 0
-136 -119 118 0
-136 -125 124 0
-136 -143 142 0
-142 -114 112 0
-142 -120 118 0
-142 -126 124 0
-142 -138 136 0
-113 -115 119 0
-113 -121 125 0
-113 -127 131 0
-113 -139 143 0
-119 -110 113 0
-119 -122 125 0
-119 -128 131 0
-119 -140 143 0
-125 -111 113 0
-125 -117 119 0
-125 -129 131 0
-125 -141 143 0
-131 -112 113 0
-131 -118 119 0
-131 -124 125 0
-131 -142 143 0
-143 -114 113 0
-143 -120 119 0
-143 -126 125 0
-143 -132 131 0
-114 -115 120 0
-114 -121 126 0
-114 -127 132 0
-114 -133 138 0
-120 -110 114 0
-120 -122 126 0
-120 -128 132 0
-120 -134 138 0
-126 -111 114 0
-126 -117 120 0
-126 -129 132 0
-126 -135 138 0
-132 -112 114 0
-132 -118 120 0
-132 -124 126 0
-132 -136 138 0
-138 -113 114 0
-138 -119 120 0
-138 -125 126 0
-138 -131 132 0
-151 -158 157 0
-151 -164 163 0
-151 -170 169 0
-151 -176 175 0
-157 -153 151 0
-157 -165 163 0
-157 -171 169 0
-157 -177 175 0
-163 -154 151 0
-163 -160 157 0
-163 -172 169 0
-163 -178 175 0
-169 -155 151 0
-169 -161 157 0
-169 -167 163 0
-169 -179 175 0
-175 -156 151 0
-175 -162 157 0
-175 -168 163 0
-175 -174 169 0
-146 -157 158 0
-146 -163 164 0
-146 -169 170 0
-146 -175 176 0
-158 -147 146 0
-158 -165 164 0
-158 -171 170 0
-158 -177 176 0
-164 -148 146 0
-164 -160 158 0
-164 -172 170 0
-164 -178 176 0
-170 -149 146 0
-170 -161 158 0
-170 -167 164 0
-170 -179 176 0
-176 -150 146 0
-176 -162 158 0
-176 -168 164 0
-176 -174 170 0
-147 -151 153 0
-147 -163 165 0
-147 -169 171 0
-147 -175 177 0
-153 -146 147 0
-153 -164 165 0
-153 -170 171 0
-153 -176 177 0
-165 -148 147 0
-165 -154 153 0
-165 -172 171 0
-165 -178 177 0
-171 -149 147 0
-171 -155 153 0
-171 -167 165 0
-171 -179 177 0
-177 -150 147 0
-177 -156 153 0
-177 -168 165 0
-177 -174 171 0
-148 -151 154 0
-148 -157 160 0
-148 -169 172 0
-148 -175 178 0
-154 -146 148 0
-154 -158 160 0
-154 -170 172 0
-154 -176 178 0
-160 -147 148 0
-160 -153 154 0
-160 -171 172 0
-160 -177 178 0
-172 -149 148 0
-172 -155 154 0
-172 -161 160 0
-172 -179 178 0
-178 -150 148 0
-178 -156 154 0
-178 -162 160 0
-178 -174 172 0
-149 -151 155 0
-149 -157 161 0
-149 -163 167 0
-149 -175 179 0
-155 -146 149 0
-155 -158 161 0
-155 -164 167 0
-155 -176 179 0
-161 -147 149 0
-161 -153 155 0
-161 -165 167 0
-161 -177 179 0
-167 -148 149 0
-167 -154 155 0
-167 -160 161 0
-167 -178 179 0
-179 -150 149 0
-179 -156 155 0
-179 -162 161 0
-179 -168 167 0
-150 -151 156 0
-150 -157 162 0
-150 -163 168 0
-150 -169 174 0
-156 -146 150 0
-156 -158 162 0
-156 -164 168 0
-156 -170 174 0
-162 -147 150 0
-162 -153 156 0
-162 -165 168 0
-162 -171 174 0
-168 -148 150 0
-168 -154 156 0
-168 -160 162 0
-168 -172 174 0
-174 -149 150 0
-174 -155 156 0
-174 -161 162 0
-174 -167 168 0
-187 -194 193 0
-187 -200 199 0
-187 -206 205 0
-187 -212 211 0
-193 -189 187 0
-193 -201 199 0
-193 -207 205 0
-193 -213 211 0
-199 -190 187 0
-199 -196 193 0
-199 -208 205 0
-199 -214 211 0
-205 -191 187 0
-205 -197 193 0
-205 -203 199 0
-205 -215 211 0
-211 -192 187 0
-211 -198 193 0
-211 -204 199 0
-211 -210 205 0
-182 -193 194 0
-182 -199 200 0
-182 -205 206 0
-182 -211 212 0
-194 -183 182 0
-194 -201 200 0
-194 -207 206 0
-194 -213 212 0
-200 -184 182 0
-200 -196 194 0
-200 -208 206 0
-200 -214 212 0
-206 -185 182 0
-206 -197 194 0
-206 -203 200 0
-206 -215 212 0
-212 -186 182 0
-212 -198 194 0
-212 -204 200 0
-212 -210 206 0
-183 -187 189 0
-183 -199 201 0
-183 -205 207 0
-183 -211 213 0
-189 -182 183 0
-189 -200 201 0
-189 -206 207 0
-189 -212 213 0
-201 -184 183 0
-201 -190 189 0
-201 -208 207 0
-201 -214 213 0
-207 -185 183 0
-207 -191 189 0
-207 -203 201 0
-207 -215 213 0
-213 -186 183 0
-213 -192 189 0
-213 -204 201 0
-213 -210 207 0
-184 -187 190 0
-184 -193 196 0
-184 -205 208 0
-184 -211 214 0
-190 -182 184 0
-190 -194 196 0
-190 -206 208 0
-190 -212 214 0
-196 -183 184 0
-196 -189 190 0
-196 -207 208 0
-196 -213 214 0
-208 -185 184 0
-208 -191 190 0
-208 -197 196 0
-208 -215 214 0
-214 -186 184 0
-214 -192 190 0
-214 -198 196 0
-214 -210 208 0
-185 -187 191 0
-185 -193 197 0
-185 -199 203 0
-185 -211 215 0
-191 -182 185 0
-191 -194 197 0
-191 -200 203 0
-191 -212 215 0
-197 -183 185 0
-197 -189 191 0
-197 -201 203 0
-197 -213 215 0
-203 -184 185 0
-203 -190 191 0
-203 -196 197 0
-203 -214 215 0
-215 -186 185 0
-215 -192 191 0
-215 -198 197 0
-215 -204 203 0
-186 -187 192 0
-186 -193 198 0
-186 -199 204 0
-186 -205 210 0
-192 -182 186 0
-192 -194 198 0
-192 -200 204 0
-192 -206 210 0
-198 -183 186 0
-198 -189 192 0
-198 -201 204 0
-198 -207 210 0
-204 -184 186 0
-204 -190 192 0
-204 -196 198 0
-204 -208 210 0
-210 -185 186 0
-210 -191 192 0
-210 -197 198 0
-210 -203 204 0
-223 -230 229 0
-223 -236 235 0
-223 -242 241 0
-223 -248 247 0
-229 -225 223 0
-229 -237 235 0
-229 -243 241 0
-229 -249 247 0
-235 -226 223 0
-235 -232 229 0
-235 -244 241 0
-235 -250 247 0
-241 -227 223 0
-241 -233 229 0
-241 -239 235 0
-241 -251 247 0
-247 -228 223 0
-247 -234 229 0
-247 -240 235 0
-247 -246 241 0
-218 -229 230 0
-218 -235 236 0
-218 -241 242 0
-218 -247 248 0
-230 -219 218 0
-230 -237 236 0
-230 -243 242 0
-230 -249 248 0
-236 -220 218 0
-236 -232 230 0
-236 -244 242 0
-236 -250 248 0
-242 -221 218 0
-242 -233 230 0
-242 -239 236 0
-242 -251 248 0
-248 -222 218 0
-248 -234 230 0
-248 -240 236 0
-248 -246 242 0
-219 -223 225 0
-219 -235 237 0
-219 -241 243 0
-219 -247 249 0
-225 -218 219 0
-225 -236 237 0
-225 -242 243 0
-225 -248 249 0
-237 -220 219 0
-237 -226 225 0
-237 -244 243 0
-237 -250 249 0
-243 -221 219 0
-243 -227 225 0
-243 -239 237 0
-243 -251 249 0
-249 -222 219 0
-249 -228 225 0
-249 -240 237 0
-249 -246 243 0
-220 -223 226 0
-220 -229 232 0
-220 -241 244 0
-220 -247 250 0
-226 -218 220 0
-226 -230 232 0
-226 -242 244 0
-226 -248 250 0
-232 -219 220 0
-232 -225 226 0
-232 -243 244 0
-232 -249 250 0
-244 -221 220 0
-244 -227 226 0
-244 -233 232 0
-244 -251 250 0
-250 -222 220 0
-250 -228 226 0
-250 -234 232 0
-250 -246 244 0
-221 -223 227 0
-221 -229 233 0
-221 -235 239 0
-221 -247 251 0
-227 -218 221 0
-227 -230 233 0
-227 -236 239 0
-227 -248 251 0
-233 -219 221 0
-233 -225 227 0
-233 -237 239 0
-233 -249 251 0
-239 -220 221 0
-239 -226 227 0
-239 -232 233 0
-239 -250 251 0
-251 -222 221 0
-251 -228 227 0
-251 -234 233 0
-251 -240 239 0
-222 -223 228 0
-222 -229 234 0
-222 -235 240 0
-222 -241 246 0
-228 -218 222 0
-228 -230 234 0
-228 -236 240 0
-228 -242 246 0
-234 -219 222 0
-234 -225 228 0
-234 -237 240 0
-234 -243 246 0
-240 -220 222 0
-240 -226 228 0
-240 -232 234 0
-240 -244 246 0
-246 -221 222 0
-246 -227 228 0
-246 -233 234 0
-246 -239 240 0
-259 -266 265 0
-259 -272 271 0
-259 -278 277 0
-259 -284 283 0
-265 -261 259 0
-265 -273 271 0
-265 -279 277 0
-265 -285 283 0
-271 -262 259 0
-271 -268 265 0
-271 -280 277 0
-271 -286 283 0
-277 -263 259 0
-277 -269 265 0
-277 -275 271 0
-277 -287 283 0
-283 -264 259 0
-283 -270 265 0
-283 -276 271 0
-283 -282 277 0
-254 -265 266 0
-254 -271 272 0
-254 -277 278 0
-254 -283 284 0
-266 -255 254 0
-266 -273 272 0
-266 -279 278 0
-266 -285 284 0
-272 -256 254 0
-272 -268 266 0
-272 -280 278 0
-272 -286 284 0
-278 -257 254 0
-278 -269 266 0
-278 -275 272 0
-278 -287 284 0
-284 -258 254 0
-284 -270 266 0
-284 -276 272 0
-284 -282 278 0
-255 -259 261 0
-255 -271 273 0
-255 -277 279 0
-255 -283 285 0
-261 -254 255 0
-261 -272 273 0
-261 -278 279 0
-261 -284 285 0
-273 -256 255 0
-273 -262 261 0
-273 -280 279 0
-273 -286 285 0
-279 -257 255 0
-279 -263 261 0
-279 -275 273 0
-279 -287 285 0
-285 -258 255 0
-285 -264 261 0
-285 -276 273 0
-285 -282 279 0
-256 -259 262 0
-256 -265 268 0
-256 -277 280 0
-256 -283 286 0
-262 -254 256 0
-262 -266 268 0
-262 -278 280 0
-262 -284 286 0
-268 -255 256 0
-268 -261 262 0
-268 -279 280 0
-268 -285 286 0
-280 -257 256 0
-280 -263 262 0
-280 -269 268 0
-280 -287 286 0
-286 -258 256 0
-286 -264 262 0
-286 -270 268 0
-286 -282 280 0
-257 -259 263 0
-257 -265 269 0
-257 -271 275 0
-257 -283 287 0
-263 -254 257 0
-263 -266 269 0
-263 -272 275 0
-263 -284 287 0
-269 -255 257 0
-269 -261 263 0
-269 -273 275 0
-269 -285 287 0
-275 -256 257 0
-275 -262 263 0
-275 -268 269 0
-275 -286 287 0
-287 -258 257 0
-287 -264 263 0
-287 -270 269 0
-287 -276 275 0
-258 -259 264 0
-258 -265 270 0
-258 -271 276 0
-258 -277 282 0
-264 -254 258 0
-264 -266 270 0
-264 -272 276 0
-264 -278 282 0
-270 -255 258 0
-270 -261 264 0
-270 -273 276 0
-270 -279 282 0
-276 -256 258 0
-276 -262 264 0
-276 -268 270 0
-276 -280 282 0
-282 -257 258 0
-282 -263 264 0
-282 -269 270 0
-282 -275 276 0
7 2 0
-7 -2 0
13 3 0
-13 -3 0
19 4 0
-19 -4 0
25 5 0
-25 -5 0
31 6 0
-31 -6 0
2 7 0
-2 -7 0
14 9 0
-14 -9 0
20 10 0
-20 -10 0
26 11 0
-26 -11 0
32 12 0
-32 -12 0
3 13 0
-3 -13 0
9 14 0
-9 -14 0
21 16 0
-21 -16 0
27 17 0
-27 -17 0
33 18 0
-33 -18 0
4 19 0
-4 -19 0
10 20 0
-10 -20 0
16 21 0
-16 -21 0
28 23 0
-28 -23 0
34 24 0
-34 -24 0
5 25 0
-5 -25 0
11 26 0
-11 -26 0
17 27 0
-17 -27 0
23 28 0
-23 -28 0
35 30 0
-35 -30 0
6 31 0
-6 -31 0
12 32 0
-12 -32 0
18 33 0
-18 -33 0
24 34 0
-24 -34 0
30 35 0
-30 -35 0
43 38 0
-43 -38 0
49 39 0
-49 -39 0
55 40 0
-55 -40 0
61 41 0
-61 -41 0
67 42 0
-67 -42 0
38 43 0
-38 -43 0
50 45 0
-50 -45 0
56 46 0
-56 -46 0
62 47 0
-62 -47 0
68 48 0
-68 -48 0
39 49 0
-39 -49 0
45 50 0
-45 -50 0
57 52 0
-57 -52 0
63 53 0
-63 -53 0
69 54 0
-69 -54 0
40 55 0
-40 -55 0
46 56 0
-46 -56 0
52 57 0
-52 -57 0
64 59 0
-64 -59 0
70 60 0
-70 -60 0
41 61 0
-41 -61 0
47 62 0
-47 -62 0
53 63 0
-53 -63 0
59 64 0
-59 -64 0
71 66 0
-71 -66 0
42 67 0
-42 -67 0
48 68 0
-48 -68 0
54 69 0
-54 -69 0
60 70 0
-60 -70 0
66 71 0
-66 -71 0
79 74 0
-79 -74 0
85 75 0
-85 -75 0
91 76 0
-91 -76 0
97 77 0
-97 -77 0
103 78 0
-103 -78 0
74 79 0
-74 -79 0
86 81 0
-86 -81 0
92 82 0
-92 -82 0
98 83 0
-98 -83 0
104 84 0
-104 -84 0
75 85 0
-75 -85 0
81 86 0
-81 -86 0
93 88 0
-93 -88 0
99 89 0
-99 -89 0
105 90 0
-105 -90 0
76 91 0
-76 -91 0
82 92 0
-82 -92 0
88 93 0
-88 -93 0
100 95 0
-100 -95 0
106 96 0
-106 -96 0
77 97 0
-77 -97 0
83 98 0
-83 -98 0
89 99 0
-89 -99 0
95 100 0
-95 -100 0
107 102 0
-107 -102 0
78 103 0
-78 -103 0
84 104 0
-84 -104 0
90 105 0
-90 -105 0
96 106 0
-96 -106 0
102 107 0
-102 -107 0
115 110 0
-115 -110 0
121 111 0
-121 -111 0
127 112 0
-127 -112 0
133 113 0
-133 -113 0
139 114 0
-139 -114 0
110 115 0
-110 -115 0
122 117 0
-122 -117 0
128 118 0
-128 -118 0
134 119 0
-134 -119 0
140 120 0
-140 -120 0
111 121 0
-111 -121 0
117 122 0
-117 -122 0
129 124 0
-129 -124 0
135 125 0
-135 -125 0
141 126 0
-141 -126 0
112 127 0
-112 -127 0
118 128 0
-118 -128 0
124 129 0
-124 -129 0
136 131 0
-136 -131 0
142 132 0
-142 -132 0
113 133 0
-113 -133 0
119 134 0
-119 -134 0
125 135 0
-125 -135 0
131 136 0
-131 -136 0
143 138 0
-143 -138 0
114 139 0
-114 -139 0
120 140 0
-120 -140 0
126 141 0
-126 -141 0
132 142 0
-132 -142 0
138 143 0
-138 -143 0
151 146 0
-151 -146 0
157 147 0
-157 -147 0
163 148 0
-163 -148 0
169 149 0
-169 -149 0
175 150 0
-175 -150 0
146 151 0
-146 -151 0
158 153 0
-158 -153 0
164 154 0
-164 -154 0
170 155 0
-170 -155 0
176 156 0
-176 -156 0
147 157 0
-147 -157 0
153 158 0
-153 -158 0
165 160 0
-165 -160 0
171 161 0
-171 -161 0
177 162 0
-177 -162 0
148 163 0
-148 -163 0
154 164 0
-154 -164 0
160 165 0
-160 -165 0
172 167 0
-172 -167 0
178 168 0
-178 -168 0
149 169 0
-149 -169 0
155 170 0
-155 -170 0
161 171 0
-161 -171 0
167 172 0
-167 -172 0
179 174 0
-179 -174 0
150 175 0
-150 -175 0
156 176 0
-156 -176 0
162 177 0
-162 -177 0
168 178 0
-168 -178 0
174 179 0
-174 -179 0
187 182 0
-187 -182 0
193 183 0
-193 -183 0
199 184 0
-199 -184 0
205 185 0
-205 -185 0
211 186 0
-211 -186 0
182 187 0
-182 -187 0
194 189 0
-194 -189 0
200 190 0
-200 -190 0
206 191 0
-206 -191 0
212 192 0
-212 -192 0
183 193 0
-183 -193 0
189 194 0
-189 -194 0
201 196 0
-201 -196 0
207 197 0
-207 -197 0
213 198 0
-213 -198 0
184 199 0
-184 -199 0
190 200 0
-190 -200 0
196 201 0
-196 -201 0
208 203 0
-208 -203 0
214 204 0
-214 -204 0
185 205 0
-185 -205 0
191 206 0
-191 -206 0
197 207 0
-197 -207 0
203 208 0
-203 -208 0
215 210 0
-215 -210 0
186 211 0
-186 -211 0
192 212 0
-192 -212 0
198 213 0
-198 -213 0
204 214 0
-204 -214 0
210 215 0
-210 -215 0
223 218 0
-223 -218 0
229 219 0
-229 -219 0
235 220 0
-235 -220 0
241 221 0
-241 -221 0
247 222 0
-247 -222 0
218 223 0
-218 -223 0
230 225 0
-230 -225 0
236 226 0
-236 -226 0
242 227 0
-242 -227 0
248 228 0
-248 -228 0
219 229 0
-219 -229 0
225 230 0
-225 -230 0
237 232 0
-237 -232 0
243 233 0
-243 -233 0
249 234 0
-249 -234 0
220 235 0
-220 -235 0
226 236 0
-226 -236 0
232 237 0
-232 -237 0
244 239 0
-244 -239 0
250 240 0
-250 -240 0
221 241 0
-221 -241 0
227 242 0
-227 -242 0
233 243 0
-233 -243 0
239 244 0
-239 -244 0
251 246 0
-251 -246 0
222 247 0
-222 -247 0
228 248 0
-228 -248 0
234 249 0
-234 -249 0
240 250 0
-240 -250 0
246 251 0
-246 -251 0
259 254 0
-259 -254 0
265 255 0
-265 -255 0
271 256 0
-271 -256 0
277 257 0
-277 -257 0
283 258 0
-283 -258 0
254 259 0
-254 -259 0
266 261 0
-266 -261 0
272 262 0
-272 -262 0
278 263 0
-278 -263 0
284 264 0
-284 -264 0
255 265 0
-255 -265 0
261 266 0
-261 -266 0
273 268 0
-273 -268 0
279 269 0
-279 -269 0
285 270 0
-285 -270 0
256 271 0
-256 -271 0
262 272 0
-262 -272 0
268 273 0
-268 -273 0
280 275 0
-280 -275 0
286 276 0
-286 -276 0
257 277 0
-257 -277 0
263 278 0
-263 -278 0
269 279 0
-269 -279 0
275 280 0
-275 -280 0
287 282 0
-287 -282 0
258 283 0
-258 -283 0
264 284 0
-264 -284 0
270 285 0
-270 -285 0
276 286 0
-276 -286 0
282 287 0
-282 -287 0
-397 -407 0
-397 -417 0
-397 -427 0
-397 -437 0
-397 -447 0
-397 -457 0
-407 -417 0
-407 -427 0
-407 -437 0
-407 -447 0
-407 -457 0
-417 -427 0
-417 -437 0
-417 -447 0
-417 -457 0
-427 -437 0
-427 -447 0
-427 -457 0
-437 -447 0
-437 -457 0
-447 -457 0
-398 -408 0
-398 -418 0
-398 -428 0
-398 -438 0
-398 -448 0
-398 -458 0
-408 -418 0
-408 -428 0
-408 -438 0
-408 -448 0
-408 -458 0
-418 -428 0
-418 -438 0
-418 -448 0
-418 -458 0
-428 -438 0
-428 -448 0
-428 -458 0
-438 -448 0
-438 -458 0
-448 -458 0
-399 -409 0
-399 -419 0
-399 -429 0
-399 -439 0
-399 -449 0
-399 -459 0
-409 -419 0
-409 -429 0
-409 -439 0
-409 -449 0
-409 -459 0
-419 -429 0
-419 -439 0
-419 -449 0
-419 -459 0
-429 -439 0
-429 -449 0
-429 -459 0
-439 -449 0
-439 -459 0
-449 -459 0
-400 -410 0
-400 -420 0
-400 -430 0
-400 -440 0
-400 -450 0
-400 -460 0
-410 -420 0
-410 -430 0
-410 -440 0
-410 -450 0
-410 -460 0
-420 -430 0
-420 -440 0
-420 -450 0
-420 -460 0
-430 -440 0
-430 -450 0
-430 -460 0
-440 -450 0
-440 -460 0
-450 -460 0
-401 -411 0
-401 -421 0
-401 -431 0
-401 -441 0
-401 -451 0
-401 -461 0
-411 -421 0
-411 -431 0
-411 -441 0
-411 -451 0
-411 -461 0
-421 -431 0
-421 -441 0
-421 -451 0
-421 -461 0
-431 -441 0
-431 -451 0
-431 -461 0
-441 -451 0
-441 -461 0
-451 -461 0
-402 -412 0
-402 -422 0
-402 -432 0
-402 -442 0
-402 -452 0
-402 -462 0
-412 -422 0
-412 -432 0
-412 -442 0
-412 -452 0
-412 -462 0
-422 -432 0
-422 -442 0
-422 -452 0
-422 -462 0
-432 -442 0
-432 -452 0
-432 -462 0
-442 -452 0
-442 -462 0
-452 -462 0
-403 -413 0
-403 -423 0
-403 -433 0
-403 -443 0
-403 -453 0
-403 -463 0
-413 -423 0
-413 -433 0
-413 -443 0
-413 -453 0
-413 -463 0
-423 -433 0
-423 -443 0
-423 -453 0
-423 -463 0
-433 -443 0
-433 -453 0
-433 -463 0
-443 -453 0
-443 -463 0
-453 -463 0
-404 -414 0
-404 -424 0
-404 -434 0
-404 -444 0
-404 -454 0
-404 -464 0
-414 -424 0
-414 -434 0
-414 -444 0
-414 -454 0
-414 -464 0
-424 -434 0
-424 -444 0
-424 -454 0
-424 -464 0
-434 -444 0
-434 -454 0
-434 -464 0
-444 -454 0
-444 -464 0
-454 -464 0
-405 -415 0
-405 -425 0
-405 -435 0
-405 -445 0
-405 -455 0
-405 -465 0
-415 -425 0
-415 -435 0
-415 -445 0
-415 -455 0
-415 -465 0
-425 -435 0
-425 -445 0
-425 -455 0
-425 -465 0
-435 -445 0
-435 -455 0
-435 -465 0
-445 -455 0
-445 -465 0
-455 -465 0
-406 -416 0
-406 -426 0
-406 -436 0
-406 -446 0
-406 -456 0
-406 -466 0
-416 -426 0
-416 -436 0
-416 -446 0
-416 -456 0
-416 -466 0
-426 -436 0
-426 -446 0
-426 -456 0
-426 -466 0
-436 -446 0
-436 -456 0
-436 -466 0
-446 -456 0
-446 -466 0
-456 -466 0
397 407 417 427 437 447 457 0
398 408 418 428 438 448 458 0
399 409 419 429 439 449 459 0
400 410 420 430 440 450 460 0
401 411 421 431 441 451 461 0
402 412 422 432 442 452 462 0
403 413 423 433 443 453 463 0
404 414 424 434 444 454 464 0
405 415 425 435 445 455 465 0
406 416 426 436 446 456 466 0
-397 -7 -43 0
-397 7 43 0
-407 -43 -79 0
-407 43 79 0
-417 -79 -115 0
-417 79 115 0
-427 -115 -151 0
-427 115 151 0
-437 -151 -187 0
-437 151 187 0
-447 -187 -223 0
-447 187 223 0
-457 -223 -259 0
-457 223 259 0
-398 -21 -57 0
-398 21 57 0
-408 -57 -93 0
-408 57 93 0
-418 -93 -129 0
-418 93 129 0
-428 -129 -165 0
-428 129 165 0
-438 -165 -201 0
-438 165 201 0
-448 -201 -237 0
-448 201 237 0
-458 -237 -273 0
-458 237 273 0
-399 -27 -63 0
-399 27 63 0
-409 -63 -99 0
-409 63 99 0
-419 -99 -135 0
-419 99 135 0
-429 -135 -171 0
-429 135 171 0
-439 -171 -207 0
-439 171 207 0
-449 -207 -243 0
-449 207 243 0
-459 -243 -279 0
-459 243 279 0
-400 -33 -69 0
-400 33 69 0
-410 -69 -105 0
-410 69 105 0
-420 -105 -141 0
-420 105 141 0
-430 -141 -177 0
-430 141 177 0
-440 -177 -213 0
-440 177 213 0
-450 -213 -249 0
-450 213 249 0
-460 -249 -285 0
-460 249 285 0
-401 -28 -64 0
-401 28 64 0
-411 -64 -100 0
-411 64 100 0
-421 -100 -136 0
-421 100 136 0
-431 -136 -172 0
-431 136 172 0
-441 -172 -208 0
-441 172 208 0
-451 -208 -244 0
-451 208 244 0
-461 -244 -280 0
-461 244 280 0
-402 -28 -64 0
-402 28 64 0
-412 -64 -100 0
-412 64 100 0
-422 -100 -136 0
-422 100 136 0
-432 -136 -172 0
-432 136 172 0
-442 -172 -208 0
-442 172 208 0
-452 -208 -244 0
-452 208 244 0
-462 -244 -280 0
-462 244 280 0
-403 -34 -70 0
-403 34 70 0
-413 -70 -106 0
-413 70 106 0
-423 -106 -142 0
-423 106 142 0
-433 -142 -178 0
-433 142 178 0
-443 -178 -214 0
-443 178 214 0
-453 -214 -250 0
-453 214 250 0
-463 -250 -286 0
-463 250 286 0
-404 -34 -70 0
-404 34 70 0
-414 -70 -106 0
-414 70 106 0
-424 -106 -142 0
-424 106 142 0
-434 -142 -178 0
-434 142 178 0
-444 -178 -214 0
-444 178 214 0
-454 -214 -250 0
-454 214 250 0
-464 -250 -286 0
-464 250 286 0
-405 -35 -71 0
-405 35 71 0
-415 -71 -107 0
-415 71 107 0
-425 -107 -143 0
-425 107 143 0
-435 -143 -179 0
-435 143 179 0
-445 -179 -215 0
-445 179 215 0
-455 -215 -251 0
-455 215 251 0
-465 -251 -287 0
-465 251 287 0
-406 -35 -71 0
-406 35 71 0
-416 -71 -107 0
-416 71 107 0
-426 -107 -143 0
-426 107 143 0
-436 -143 -179 0
-436 143 179 0
-446 -179 -215 0
-446 179 215 0
-456 -215 -251 0
-456 215 251 0
-466 -251 -287 0
-466 251 287 0
-7 43 397 0
7 -43 397 0
-13 49 0
13 -49 0
-19 55 0
19 -55 0
-25 61 0
25 -61 0
-31 67 0
31 -67 0
-14 50 0
14 -50 0
-20 56 0
20 -56 0
-26 62 0
26 -62 0
-32 68 0
32 -68 0
-21 57 398 0
21 -57 398 0
-27 63 399 0
27 -63 399 0
-33 69 400 0
33 -69 400 0
-28 64 401 402 0
28 -64 401 402 0
-34 70 403 404 0
34 -70 403 404 0
-35 71 405 406 0
35 -71 405 406 0
-43 79 407 0
43 -79 407 0
-49 85 0
49 -85 0
-55 91 0
55 -91 0
-61 97 0
61 -97 0
-67 103 0
67 -103 0
-50 86 0
50 -86 0
-56 92 0
56 -92 0
-62 98 0
62 -98 0
-68 104 0
68 -104 0
-57 93 408 0
57 -93 408 0
-63 99 409 0
63 -99 409 0
-69 105 410 0
69 -105 410 0
-64 100 411 412 0
64 -100 411 412 0
-70 106 413 414 0
70 -106 413 414 0
-71 107 415 416 0
71 -107 415 416 0
-79 115 417 0
79 -115 417 0
-85 121 0
85 -121 0
-91 127 0
91 -127 0
-97 133 0
97 -133 0
-103 139 0
103 -139 0
-86 122 0
86 -122 0
-92 128 0
92 -128 0
-98 134 0
98 -134 0
-104 140 0
104 -140 0
-93 129 418 0
93 -129 418 0
-99 135 419 0
99 -135 419 0
-105 141 420 0
105 -141 420 0
-100 136 421 422 0
100 -136 421 422 0
-106 142 423 424 0
106 -142 423 424 0
-107 143 425 426 0
107 -143 425 426 0
-115 151 427 0
115 -151 427 0
-121 157 0
121 -157 0
-127 163 0
127 -163 0
-133 169 0
133 -169 0
-139 175 0
139 -175 0
-122 158 0
122 -158 0
-128 164 0
128 -164 0
-134 170 0
134 -170 0
-140 176 0
140 -176 0
-129 165 428 0
129 -165 428 0
-135 171 429 0
135 -171 429 0
-141 177 430 0
141 -177 430 0
-136 172 431 432 0
136 -172 431 432 0
-142 178 433 434 0
142 -178 433 434 0
-143 179 435 436 0
143 -179 435 436 0
-151 187 437 0
151 -187 437 0
-157 193 0
157 -193 0
-163 199 0
163 -199 0
-169 205 0
169 -205 0
-175 211 0
175 -211 0
-158 194 0
158 -194 0
-164 200 0
164 -200 0
-170 206 0
170 -206 0
-176 212 0
176 -212 0
-165 201 438 0
165 -201 438 0
-171 207 439 0
171 -207 439 0
-177 213 440 0
177 -213 440 0
-172 208 441 442 0
172 -208 441 442 0
-178 214 443 444 0
178 -214 443 444 0
-179 215 445 446 0
179 -215 445 446 0
-187 223 447 0
187 -223 447 0
-193 229 0
193 -229 0
-199 235 0
199 -235 0
-205 241 0
205 -241 0
-211 247 0
211 -247 0
-194 230 0
194 -230 0
-200 236 0
200 -236 0
-206 242 0
206 -242 0
-212 248 0
212 -248 0
-201 237 448 0
201 -237 448 0
-207 243 449 0
207 -243 449 0
-213 249 450 0
213 -249 450 0
-208 244 451 452 0
208 -244 451 452 0
-214 250 453 454 0
214 -250 453 454 0
-215 251 455 456 0
215 -251 455 456 0
-223 259 457 0
223 -259 457 0
-229 265 0
229 -265 0
-235 271 0
235 -271 0
-241 277 0
241 -277 0
-247 283 0
247 -283 0
-230 266 0
230 -266 0
-236 272 0
236 -272 0
-242 278 0
242 -278 0
-248 284 0
248 -284 0
-237 273 458 0
237 -273 458 0
-243 279 459 0
243 -279 459 0
-249 285 460 0
249 -285 460 0
-244 280 461 462 0
244 -280 461 462 0
-250 286 463 464 0
250 -286 463 464 0
-251 287 465 466 0
251 -287 465 466 0
-398 -399 0
-398 -400 0
-398 -401 0
-398 -402 0
-398 -403 0
-398 -404 0
-399 -398 0
-399 -400 0
-399 -401 0
-399 -402 0
-399 -405 0
-399 -406 0
-400 -398 0
-400 -399 0
-400 -403 0
-400 -404 0
-400 -405 0
-400 -406 0
-401 -398 0
-401 -399 0
-401 -402 0
-401 -403 0
-401 -404 0
-401 -405 0
-401 -406 0
-402 -398 0
-402 -399 0
-402 -401 0
-402 -403 0
-402 -404 0
-402 -405 0
-402 -406 0
-403 -398 0
-403 -400 0
-403 -401 0
-403 -402 0
-403 -404 0
-403 -405 0
-403 -406 0
-404 -398 0
-404 -400 0
-404 -401 0
-404 -402 0
-404 -403 0
-404 -405 0
-404 -406 0
-405 -399 0
-405 -400 0
-405 -401 0
-405 -402 0
-405 -403 0
-405 -404 0
-405 -406 0
-406 -399 0
-406 -400 0
-406 -401 0
-406 -402 0
-406 -403 0
-406 -404 0
-406 -405 0
-408 -409 0
-408 -410 0
-408 -411 0
-408 -412 0
-408 -413 0
-408 -414 0
-409 -408 0
-409 -410 0
-409 -411 0
-409 -412 0
-409 -415 0
-409 -416 0
-410 -408 0
-410 -409 0
-410 -413 0
-410 -414 0
-410 -415 0
-410 -416 0
-411 -408 0
-411 -409 0
-411 -412 0
-411 -413 0
-411 -414 0
-411 -415 0
-411 -416 0
-412 -408 0
-412 -409 0
-412 -411 0
-412 -413 0
-412 -414 0
-412 -415 0
-412 -416 0
-413 -408 0
-413 -410 0
-413 -411 0
-413 -412 0
-413 -414 0
-413 -415 0
-413 -416 0
-414 -408 0
-414 -410 0
-414 -411 0
-414 -412 0
-414 -413 0
-414 -415 0
-414 -416 0
-415 -409 0
-415 -410 0
-415 -411 0
-415 -412 0
-415 -413 0
-415 -414 0
-415 -416 0
-416 -409 0
-416 -410 0
-416 -411 0
-416 -412 0
-416 -413 0
-416 -414 0
-416 -415 0
-418 -419 0
-418 -420 0
-418 -421 0
-418 -422 0
-418 -423 0
-418 -424 0
-419 -418 0
-419 -420 0
-419 -421 0
-419 -422 0
-419 -425 0
-419 -426 0
-420 -418 0
-420 -419 0
-420 -423 0
-420 -424 0
-420 -425 0
-420 -426 0
-421 -418 0
-421 -419 0
-421 -422 0
-421 -423 0
-421 -424 0
-421 -425 0
-421 -426 0
-422 -418 0
-422 -419 0
-422 -421 0
-422 -423 0
-422 -424 0
-422 -425 0
-422 -426 0
-423 -418 0
-423 -420 0
-423 -421 0
-423 -422 0
-423 -424 0
-423 -425 0
-423 -426 0
-424 -418 0
-424 -420 0
-424 -421 0
-424 -422 0
-424 -423 0
-424 -425 0
-424 -426 0
-425 -419 0
-425 -420 0
-425 -421 0
-425 -422 0
-425 -423 0
-425 -424 0
-425 -426 0
-426 -419 0
-426 -420 0
-426 -421 0
-426 -422 0
-426 -423 0
-426 -424 0
-426 -425 0
-428 -429 0
-428 -430 0
-428 -431 0
-428 -432 0
-428 -433 0
-428 -434 0
-429 -428 0
-429 -430 0
-429 -431 0
-429 -432 0
-429 -435 0
-429 -436 0
-430 -428 0
-430 -429 0
-430 -433 0
-430 -434 0
-430 -435 0
-430 -436 0
-431 -428 0
-431 -429 0
-431 -432 0
-431 -433 0
-431 -434 0
-431 -435 0
-431 -436 0
-432 -428 0
-432 -429 0
-432 -431 0
-432 -433 0
-432 -434 0
-432 -435 0
-432 -436 0
-433 -428 0
-433 -430 0
-433 -431 0
-433 -432 0
-433 -434 0
-433 -435 0
-433 -436 0
-434 -428 0
-434 -430 0
-434 -431 0
-434 -432 0
-434 -433 0
-434 -435 0
-434 -436 0
-435 -429 0
-435 -430 0
-435 -431 0
-435 -432 0
-435 -433 0
-435 -434 0
-435 -436 0
-436 -429 0
-436 -430 0
-436 -431 0
-436 -432 0
-436 -433 0
-436 -434 0
-436 -435 0
-438 -439 0
-438 -440 0
-438 -441 0
-438 -442 0
-438 -443 0
-438 -444 0
-439 -438 0
-439 -440 0
-439 -441 0
-439 -442 0
-439 -445 0
-439 -446 0
-440 -438 0
-440 -439 0
-440 -443 0
-440 -444 0
-440 -445 0
-440 -446 0
-441 -438 0
-441 -439 0
-441 -442 0
-441 -443 0
-441 -444 0
-441 -445 0
-441 -446 0
-442 -438 0
-442 -439 0
-442 -441 0
-442 -443 0
-442 -444 0
-442 -445 0
-442 -446 0
-443 -438 0
-443 -440 0
-443 -441 0
-443 -442 0
-443 -444 0
-443 -445 0
-443 -446 0
-444 -438 0
-444 -440 0
-444 -441 0
-444 -442 0
-444 -443 0
-444 -445 0
-444 -446 0
-445 -439 0
-445 -440 0
-445 -441 0
-445 -442 0
-445 -443 0
-445 -444 0
-445 -446 0
-446 -439 0
-446 -440 0
-446 -441 0
-446 -442 0
-446 -443 0
-446 -444 0
-446 -445 0
-448 -449 0
-448 -450 0
-448 -451 0
-448 -452 0
-448 -453 0
-448 -454 0
-449 -448 0
-449 -450 0
-449 -451 0
-449 -452 0
-449 -455 0
-449 -456 0
-450 -448 0
-450 -449 0
-450 -453 0
-450 -454 0
-450 -455 0
-450 -456 0
-451 -448 0
-451 -449 0
-451 -452 0
-451 -453 0
-451 -454 0
-451 -455 0
-451 -456 0
-452 -448 0
-452 -449 0
-452 -451 0
-452 -453 0
-452 -454 0
-452 -455 0
-452 -456 0
-453 -448 0
-453 -450 0
-453 -451 0
-453 -452 0
-453 -454 0
-453 -455 0
-453 -456 0
-454 -448 0
-454 -450 0
-454 -451 0
-454 -452 0
-454 -453 0
-454 -455 0
-454 -456 0
-455 -449 0
-455 -450 0
-455 -451 0
-455 -452 0
-455 -453 0
-455 -454 0
-455 -456 0
-456 -449 0
-456 -450 0
-456 -451 0
-456 -452 0
-456 -453 0
-456 -454 0
-456 -455 0
-458 -459 0
-458 -460 0
-458 -461 0
-458 -462 0
-458 -463 0
-458 -464 0
-459 -458 0
-459 -460 0
-459 -461 0
-459 -462 0
-459 -465 0
-459 -466 0
-460 -458 0
-460 -459 0
-460 -463 0
-460 -464 0
-460 -465 0
-460 -466 0
-461 -458 0
-461 -459 0
-461 -462 0
-461 -463 0
-461 -464 0
-461 -465 0
-461 -466 0
-462 -458 0
-462 -459 0
-462 -461 0
-462 -463 0
-462 -464 0
-462 -465 0
-462 -466 0
-463 -458 0
-463 -460 0
-463 -461 0
-463 -462 0
-463 -464 0
-463 -465 0
-463 -466 0
-464 -458 0
-464 -460 0
-464 -461 0
-464 -462 0
-464 -463 0
-464 -465 0
-464 -466 0
-465 -459 0
-465 -460 0
-465 -461 0
-465 -462 0
-465 -463 0
-465 -464 0
-465 -466 0
-466 -459 0
-466 -460 0
-466 -461 0
-466 -462 0
-466 -463 0
-466 -464 0
-466 -465 0